NAME: random-44-5441
TYPE: TSP
COMMENT: size=44 seed=5441
DIMENSION: 90
EDGE_WEIGHT_TYPE: EUC_2D
NODE_COORD_SECTION
+0 887 204
-0 887 204
+1 124 375
-1 919 827
+2 731 674
-2 398 343
+3 885 886
-3 637 169
+4 10 962
-4 798 31
+5 286 337
-5 681 123
+6 819 504
-6 159 219
+7 695 430
-7 186 157
+8 876 821
-8 975 258
+9 765 304
-9 715 472
+10 879 490
-10 956 123
+11 917 980
-11 456 120
+12 53 459
-12 451 920
+13 657 39
-13 350 555
+14 75 488
-14 21 360
+15 868 691
-15 686 39
+16 145 684
-16 1 957
+17 616 6
-17 990 391
+18 6 849
-18 811 5
+19 790 392
-19 904 99
+20 627 200
-20 747 926
+21 569 20
-21 70 102
+22 505 820
-22 512 341
+23 582 538
-23 880 112
+24 182 651
-24 303 284
+25 760 962
-25 497 558
+26 525 708
-26 902 264
+27 825 0
-27 463 934
+28 546 813
-28 882 511
+29 379 380
-29 352 969
+30 395 19
-30 602 190
+31 733 174
-31 192 395
+32 998 873
-32 0 56
+33 563 303
-33 194 538
+34 302 98
-34 393 141
+35 320 365
-35 283 655
+36 206 462
-36 403 208
+37 698 920
-37 624 55
+38 700 37
-38 375 662
+39 666 839
-39 951 823
+40 87 122
-40 187 635
+41 320 272
-41 980 720
+42 121 390
-42 355 508
+43 936 804
-43 462 601
+44 278 574
-44 876 8
PRECEDENCE_SECTION
+0 -0
+1 -1
+2 -2
+3 -3
+4 -4
+5 -5
+6 -6
+7 -7
+8 -8
+9 -9
+10 -10
+11 -11
+12 -12
+13 -13
+14 -14
+15 -15
+16 -16
+17 -17
+18 -18
+19 -19
+20 -20
+21 -21
+22 -22
+23 -23
+24 -24
+25 -25
+26 -26
+27 -27
+28 -28
+29 -29
+30 -30
+31 -31
+32 -32
+33 -33
+34 -34
+35 -35
+36 -36
+37 -37
+38 -38
+39 -39
+40 -40
+41 -41
+42 -42
+43 -43
+44 -44
EOF
